outputs/case_43.model.txt
shareholding_change_percent = 2
shareholding_reported = False
invest_in_futures = True
other_necessary_measures = True
remove_manager_or_staff = False
shareholding_percent = 0
remove_director_or_supervisor = False
invest_in_foreign_financial_institution_approved = False
invest_in_bank = False
shareholding_approved = False
authority_opposition = False
invest_in_credit_card = False
days_since_application = 16
business_type = 10
invest_in_insurance = False
invest_in_securities = False
invest_in_fhc = False
invest_in_trust = False
invest_in_venture_capital = False
invest_in_bill_finance = False
disposal_ordered = False
invest_in_other_financial_related_approved = False
subsidiary_investment_exceed_limit = False
shareholding_reporting_required = False
investment_without_approval_prohibited = False
internal_control_and_audit_established = True
futures_broker = False
futures_leveraged_trader = False
futures_trust = False
futures_manager = False
futures_advisor = False
futures_includes_subtypes = False
subsidiary_capital_reduction_approved = True
securities_broker = False
securities_trust = False
securities_advisor = False
securities_includes_subtypes = False
bank_commercial = False
bank_professional = False
bank_trust_investment = False
bank_includes_subtypes = False
shareholding_in_enterprise_percent = 0
is_corporate_and_spouse_or_second_degree_relative_of_chairman_or_gm = False
is_chairman_or_general_manager_or_majority_director = False
related_person_corporate = False
revoke_permit = False
disposal_deadline_days = 0
subsidiary_shares_held = 0
max_allowed_shares = 0
subsidiary_directors_held = 0
max_allowed_directors = 0
prohibit_use_fhc_name = False
prohibit_company_registration_change = False
revoke_permit_disposal_requirement = False
internal_control_executed = True
insurance_property = False
insurance_life = False
insurance_reinsurance = False
insurance_agent = False
insurance_broker = False
insurance_includes_subtypes = False
directly_or_indirectly_appointed_directors_percent = 0
capital_percent = 0
voting_shares_percent = 0
control_shareholding = False
shareholding_excess_disposal_ordered = False
subsidiary_business_scope_ok = True
internal_control_established = True
internal_control_and_audit_executed = True
subsidiary_business_exceed_limit = False
notify_economic_ministry_to_revoke_registration = False
revoke_director_supervisor_registration = True
is_bank_subsidiary = False
is_insurance_subsidiary = False
is_securities_subsidiary = False
subsidiary = False
disposal_completed = False
failure_to_dispose_after_revoke_permit = False
fhc_officer_is_manager_in_venture_invested_company = False
shareholding_approval_required = False
suspend_subsidiary_business = False
revoke_statutory_resolution = False
dispose_subsidiary_shares = False
regulatory_actions_for_violation = True
investment_approval_status = True
investment_target_approved = True
subsidiary_business_management = True
prohibited_manager_in_venture_invested_company = True
subsidiary_capital_reduction_approval_required = True
penalty = False
shareholding_excess_no_voting_right = False
is_spouse_or_second_degree_relative = False
related_person_natural = False
subsidiary_business_investment = True
excess_business_or_investment_adjustment_required = False
adjustment_period_years = 0
extension_times = 0
extension_period_years = 0
adjustment_period_limit = 1